************************************************************************
file with basedata            : mb14_.bas
initial value random generator: 333429623
************************************************************************
projects                      :  1
jobs (incl. supersource/sink ):  12
horizon                       :  74
RESOURCES
  - renewable                 :  2   R
  - nonrenewable              :  2   N
  - doubly constrained        :  0   D
************************************************************************
PROJECT INFORMATION:
pronr.  #jobs rel.date duedate tardcost  MPM-Time
    1     10      0        9        7        9
************************************************************************
PRECEDENCE RELATIONS:
jobnr.    #modes  #successors   successors
   0        1          3           1   2   3
   1        3          1           9
   2        3          3           4   5   7
   3        3          1           4
   4        3          3           8   9  10
   5        3          2           6  10
   6        3          1           8
   7        3          1           8
   8        3          1          11
   9        3          1          11
  10        3          1          11
  11        1          0        
************************************************************************
REQUESTS/DURATIONS:
jobnr. mode duration  R 1  R 2  R 3  R 4  E(W 1)  E(W 2)
------------------------------------------------------------------------
  0      1     0       0    0    0    0     0       0
  1      1     6       6   10    7    8    96      90
  2      1     1       8    4    8    2    12      10
  3      1     2       9   10    6    9    38      30
  4      1     1       6    6    8    8    12      16
  5      1     3       8    7    2   10    45      36
  6      1     1       8    9    9    5    17      14
  7      1     1       6    6    9    7    12      16
  8      1     2       7    5    4    9    24      26
  9      1     3       6    6    8   10    36      54
 10      1     1       9    4    5    5    13      10
 11      1     0       0    0    0    0     0       0
************************************************************************
RESOURCEAVAILABILITIES:
  R 1  R 2
   22   141
************************************************************************
RESOURCE LIMITS:
jobnr.  l(R 1)  u(R 1)  l(R 2)  u(R 2)
------------------------------------------------------------------------
  0        0       0       0       0
  1        8      16       8      15
  2        6      12       5      10
  3       10      19       8      15
  4        6      12       8      16
  5        8      15       6      12
  6        9      17       8      14
  7        6      12       9      16
  8        7      12       7      13
  9        6      12       9      18
 10        7      13       6      10
 11        0       0       0       0
************************************************************************
SCENARIOS:
------------------------------------------------------------------------
RESOURCE k = 1
s = 1: (0, 106, 16, 29, 11, 44, 30, 12, 19, 32, 10, 0)
s = 2: (0, 104, 9, 26, 9, 42, 13, 11, 23, 34, 15, 0)
s = 3: (0, 58, 7, 48, 11, 38, 16, 12, 16, 31, 14, 0)
s = 4: (0, 62, 18, 31, 13, 53, 14, 19, 18, 22, 17, 0)
s = 5: (0, 59, 14, 33, 10, 27, 20, 10, 25, 32, 15, 0)
s = 6: (0, 78, 17, 25, 9, 63, 15, 12, 28, 46, 11, 0)
s = 7: (0, 111, 9, 31, 13, 45, 15, 8, 32, 23, 11, 0)
s = 8: (0, 123, 16, 32, 17, 48, 13, 12, 15, 38, 13, 0)
s = 9: (0, 119, 9, 23, 9, 53, 25, 13, 21, 31, 14, 0)
s = 10: (0, 122, 11, 26, 13, 54, 12, 11, 25, 49, 12, 0)
s = 11: (0, 62, 12, 37, 8, 29, 19, 19, 19, 30, 10, 0)
s = 12: (0, 105, 13, 36, 18, 63, 17, 12, 28, 50, 12, 0)
s = 13: (0, 81, 11, 25, 16, 52, 13, 11, 16, 34, 9, 0)
s = 14: (0, 99, 17, 32, 10, 44, 15, 16, 22, 37, 13, 0)
s = 15: (0, 96, 21, 49, 11, 46, 14, 13, 35, 36, 16, 0)
s = 16: (0, 105, 11, 32, 19, 37, 26, 9, 31, 36, 9, 0)
s = 17: (0, 78, 8, 49, 8, 45, 11, 16, 22, 38, 20, 0)
s = 18: (0, 99, 11, 50, 17, 30, 17, 10, 22, 45, 8, 0)
s = 19: (0, 109, 13, 34, 19, 47, 24, 15, 20, 39, 16, 0)
s = 20: (0, 98, 13, 55, 12, 30, 17, 16, 27, 30, 13, 0)
s = 21: (0, 72, 18, 43, 10, 35, 14, 22, 32, 53, 17, 0)
s = 22: (0, 60, 13, 32, 7, 42, 13, 10, 28, 29, 15, 0)
s = 23: (0, 78, 13, 35, 12, 52, 19, 10, 27, 23, 12, 0)
s = 24: (0, 77, 11, 42, 14, 27, 19, 10, 37, 33, 15, 0)
s = 25: (0, 126, 12, 55, 16, 33, 15, 18, 24, 21, 18, 0)
s = 26: (0, 80, 17, 52, 9, 48, 23, 14, 17, 50, 17, 0)
s = 27: (0, 93, 16, 47, 14, 27, 18, 19, 17, 43, 15, 0)
s = 28: (0, 58, 8, 32, 17, 32, 17, 8, 27, 50, 13, 0)
s = 29: (0, 119, 21, 38, 12, 51, 18, 16, 15, 31, 16, 0)
s = 30: (0, 127, 11, 28, 15, 26, 20, 16, 14, 39, 16, 0)
s = 31: (0, 169, 11, 42, 7, 48, 18, 11, 27, 55, 16, 0)
s = 32: (0, 66, 7, 31, 12, 45, 25, 10, 15, 33, 14, 0)
s = 33: (0, 119, 9, 58, 13, 27, 17, 12, 15, 23, 14, 0)
s = 34: (0, 79, 14, 30, 11, 50, 20, 16, 24, 47, 13, 0)
s = 35: (0, 182, 13, 34, 19, 40, 14, 18, 17, 34, 15, 0)
s = 36: (0, 55, 12, 38, 9, 35, 17, 15, 39, 45, 16, 0)
s = 37: (0, 123, 15, 27, 18, 55, 22, 17, 22, 32, 11, 0)
s = 38: (0, 105, 18, 50, 14, 48, 23, 10, 20, 19, 12, 0)
s = 39: (0, 110, 8, 49, 8, 30, 21, 13, 18, 21, 8, 0)
s = 40: (0, 73, 11, 32, 14, 47, 15, 7, 30, 30, 13, 0)
s = 41: (0, 90, 14, 37, 14, 33, 21, 8, 21, 20, 11, 0)
s = 42: (0, 119, 11, 40, 12, 50, 12, 14, 30, 39, 13, 0)
s = 43: (0, 104, 16, 35, 17, 32, 11, 11, 29, 43, 14, 0)
s = 44: (0, 95, 16, 32, 12, 28, 20, 19, 21, 23, 16, 0)
s = 45: (0, 73, 11, 60, 14, 48, 25, 18, 28, 49, 11, 0)
s = 46: (0, 83, 14, 33, 14, 34, 23, 11, 26, 49, 15, 0)
s = 47: (0, 136, 10, 25, 12, 52, 15, 19, 16, 34, 10, 0)
s = 48: (0, 104, 8, 31, 11, 40, 12, 14, 24, 36, 14, 0)
s = 49: (0, 96, 11, 40, 11, 58, 22, 10, 31, 35, 12, 0)
s = 50: (0, 162, 14, 46, 12, 52, 32, 13, 30, 37, 17, 0)
s = 51: (0, 117, 7, 49, 9, 42, 18, 11, 39, 27, 12, 0)
s = 52: (0, 112, 9, 25, 12, 47, 13, 8, 26, 30, 16, 0)
s = 53: (0, 118, 9, 29, 10, 41, 21, 9, 27, 28, 20, 0)
s = 54: (0, 110, 7, 37, 17, 52, 23, 16, 37, 23, 9, 0)
s = 55: (0, 98, 11, 25, 13, 70, 28, 11, 19, 36, 10, 0)
s = 56: (0, 92, 14, 31, 12, 35, 21, 14, 36, 58, 14, 0)
s = 57: (0, 82, 11, 31, 9, 46, 14, 12, 22, 27, 13, 0)
s = 58: (0, 112, 14, 27, 14, 49, 31, 12, 34, 41, 24, 0)
s = 59: (0, 75, 7, 27, 16, 44, 22, 14, 19, 43, 14, 0)
s = 60: (0, 163, 17, 29, 9, 27, 22, 18, 27, 54, 18, 0)
s = 61: (0, 123, 10, 41, 10, 56, 17, 9, 38, 27, 11, 0)
s = 62: (0, 80, 13, 54, 15, 60, 13, 16, 26, 39, 11, 0)
s = 63: (0, 151, 16, 33, 14, 57, 17, 10, 31, 26, 16, 0)
s = 64: (0, 102, 18, 51, 8, 47, 19, 12, 25, 24, 13, 0)
s = 65: (0, 95, 9, 44, 15, 30, 12, 21, 19, 41, 12, 0)
s = 66: (0, 84, 10, 22, 22, 39, 16, 15, 26, 29, 18, 0)
s = 67: (0, 63, 9, 30, 10, 46, 14, 13, 21, 41, 13, 0)
s = 68: (0, 115, 9, 59, 10, 42, 9, 15, 27, 56, 15, 0)
s = 69: (0, 59, 11, 37, 15, 58, 23, 16, 29, 21, 12, 0)
s = 70: (0, 62, 11, 30, 16, 39, 14, 13, 23, 22, 20, 0)
s = 71: (0, 85, 14, 35, 18, 67, 29, 15, 19, 26, 18, 0)
s = 72: (0, 110, 12, 43, 9, 37, 11, 11, 31, 42, 13, 0)
s = 73: (0, 75, 10, 24, 15, 30, 22, 10, 29, 40, 12, 0)
s = 74: (0, 97, 12, 43, 15, 64, 15, 14, 29, 38, 16, 0)
s = 75: (0, 145, 13, 24, 9, 36, 19, 9, 18, 35, 12, 0)
s = 76: (0, 99, 13, 35, 12, 69, 28, 18, 28, 45, 12, 0)
s = 77: (0, 96, 11, 36, 8, 69, 15, 19, 34, 24, 10, 0)
s = 78: (0, 191, 8, 48, 16, 57, 14, 12, 38, 38, 10, 0)
s = 79: (0, 76, 11, 53, 8, 27, 17, 8, 19, 43, 19, 0)
s = 80: (0, 94, 13, 44, 9, 69, 14, 15, 20, 52, 20, 0)
s = 81: (0, 98, 8, 49, 13, 34, 17, 16, 17, 36, 11, 0)
s = 82: (0, 60, 16, 51, 11, 71, 14, 10, 24, 36, 20, 0)
s = 83: (0, 74, 11, 47, 13, 33, 9, 12, 17, 35, 19, 0)
s = 84: (0, 74, 16, 30, 14, 38, 10, 8, 26, 35, 12, 0)
s = 85: (0, 71, 8, 25, 12, 41, 15, 9, 24, 60, 22, 0)
s = 86: (0, 141, 10, 30, 11, 29, 19, 9, 21, 26, 20, 0)
s = 87: (0, 97, 11, 48, 12, 28, 24, 7, 27, 26, 13, 0)
s = 88: (0, 56, 13, 53, 12, 53, 24, 15, 22, 44, 13, 0)
s = 89: (0, 120, 10, 27, 11, 51, 29, 16, 28, 38, 13, 0)
s = 90: (0, 60, 18, 25, 12, 31, 17, 15, 19, 48, 17, 0)
s = 91: (0, 109, 11, 47, 11, 50, 23, 14, 31, 37, 13, 0)
s = 92: (0, 108, 14, 27, 9, 44, 12, 14, 20, 36, 16, 0)
s = 93: (0, 76, 17, 44, 10, 32, 23, 7, 22, 23, 8, 0)
s = 94: (0, 90, 10, 35, 14, 42, 29, 16, 26, 27, 9, 0)
s = 95: (0, 128, 13, 44, 9, 32, 11, 8, 18, 26, 13, 0)
s = 96: (0, 123, 9, 51, 15, 58, 12, 8, 33, 33, 10, 0)
s = 97: (0, 81, 11, 46, 14, 61, 19, 12, 17, 35, 11, 0)
s = 98: (0, 116, 11, 48, 9, 46, 13, 19, 16, 36, 14, 0)
s = 99: (0, 108, 19, 38, 10, 47, 19, 14, 28, 38, 14, 0)
s = 100: (0, 58, 11, 38, 17, 62, 19, 13, 37, 47, 14, 0)
s = 101: (0, 114, 11, 28, 18, 32, 13, 12, 15, 24, 16, 0)
s = 102: (0, 109, 18, 45, 13, 35, 26, 7, 22, 37, 15, 0)
s = 103: (0, 128, 15, 36, 8, 27, 11, 12, 21, 33, 9, 0)
s = 104: (0, 73, 8, 50, 11, 56, 14, 12, 37, 23, 14, 0)
s = 105: (0, 109, 18, 37, 12, 69, 21, 8, 18, 27, 20, 0)
s = 106: (0, 98, 9, 47, 9, 25, 18, 15, 20, 34, 8, 0)
s = 107: (0, 66, 10, 25, 11, 37, 11, 14, 22, 31, 16, 0)
s = 108: (0, 100, 10, 48, 12, 50, 13, 13, 32, 56, 17, 0)
s = 109: (0, 119, 15, 31, 17, 27, 13, 12, 17, 37, 19, 0)
s = 110: (0, 89, 10, 63, 9, 37, 13, 10, 15, 30, 15, 0)
s = 111: (0, 70, 18, 32, 9, 51, 29, 13, 17, 40, 15, 0)
s = 112: (0, 99, 20, 66, 18, 36, 15, 11, 30, 56, 13, 0)
s = 113: (0, 70, 10, 32, 13, 41, 22, 16, 22, 48, 17, 0)
s = 114: (0, 75, 13, 36, 12, 37, 25, 14, 34, 51, 9, 0)
s = 115: (0, 101, 15, 37, 13, 57, 10, 7, 38, 33, 16, 0)
s = 116: (0, 78, 15, 41, 13, 38, 18, 11, 16, 33, 11, 0)
s = 117: (0, 92, 17, 37, 11, 69, 17, 15, 17, 35, 14, 0)
s = 118: (0, 87, 16, 32, 20, 29, 16, 12, 27, 21, 13, 0)
s = 119: (0, 92, 12, 51, 10, 57, 22, 12, 24, 42, 12, 0)
s = 120: (0, 71, 12, 31, 11, 64, 10, 14, 27, 40, 14, 0)
s = 121: (0, 95, 17, 21, 18, 26, 14, 11, 25, 57, 15, 0)
s = 122: (0, 109, 13, 33, 12, 47, 18, 15, 21, 27, 16, 0)
s = 123: (0, 55, 15, 41, 7, 37, 18, 11, 25, 43, 17, 0)
s = 124: (0, 85, 14, 40, 11, 43, 19, 21, 26, 38, 8, 0)
s = 125: (0, 87, 13, 47, 20, 43, 10, 12, 28, 32, 8, 0)
s = 126: (0, 112, 13, 48, 17, 48, 12, 12, 20, 26, 14, 0)
s = 127: (0, 56, 13, 27, 13, 69, 13, 13, 22, 46, 24, 0)
s = 128: (0, 105, 8, 32, 11, 62, 20, 14, 18, 23, 12, 0)
s = 129: (0, 69, 11, 46, 11, 37, 21, 9, 13, 48, 12, 0)
s = 130: (0, 54, 17, 39, 8, 34, 10, 12, 43, 31, 20, 0)
s = 131: (0, 103, 18, 45, 9, 47, 20, 17, 21, 51, 7, 0)
s = 132: (0, 86, 12, 32, 17, 75, 17, 11, 25, 30, 20, 0)
s = 133: (0, 60, 11, 24, 15, 66, 17, 14, 21, 49, 18, 0)
s = 134: (0, 87, 10, 33, 16, 70, 13, 10, 17, 37, 11, 0)
s = 135: (0, 113, 14, 38, 19, 33, 12, 19, 23, 23, 12, 0)
s = 136: (0, 132, 12, 24, 16, 46, 20, 16, 17, 44, 17, 0)
s = 137: (0, 101, 13, 27, 13, 33, 13, 14, 33, 32, 18, 0)
s = 138: (0, 69, 12, 37, 13, 43, 24, 20, 25, 45, 13, 0)
s = 139: (0, 125, 10, 28, 18, 58, 37, 11, 38, 29, 12, 0)
s = 140: (0, 115, 10, 38, 18, 30, 13, 17, 27, 58, 13, 0)
s = 141: (0, 89, 15, 33, 10, 37, 17, 12, 22, 33, 12, 0)
s = 142: (0, 137, 11, 38, 10, 60, 20, 9, 27, 49, 13, 0)
s = 143: (0, 93, 15, 48, 11, 47, 10, 9, 19, 37, 11, 0)
s = 144: (0, 95, 16, 42, 10, 47, 21, 8, 25, 39, 15, 0)
s = 145: (0, 51, 17, 27, 12, 39, 21, 14, 28, 42, 17, 0)
s = 146: (0, 103, 8, 39, 12, 29, 25, 20, 14, 50, 16, 0)
s = 147: (0, 138, 9, 52, 16, 33, 29, 11, 20, 32, 16, 0)
s = 148: (0, 89, 9, 31, 9, 30, 11, 9, 23, 32, 11, 0)
s = 149: (0, 111, 20, 44, 12, 37, 18, 10, 20, 31, 16, 0)
s = 150: (0, 55, 16, 34, 13, 29, 24, 12, 23, 38, 13, 0)
s = 151: (0, 110, 12, 47, 14, 42, 19, 11, 26, 53, 13, 0)
s = 152: (0, 85, 7, 26, 15, 51, 18, 7, 15, 40, 14, 0)
s = 153: (0, 54, 9, 33, 9, 34, 22, 10, 30, 48, 14, 0)
s = 154: (0, 58, 11, 29, 16, 46, 15, 8, 26, 41, 11, 0)
s = 155: (0, 92, 10, 52, 10, 45, 14, 17, 16, 39, 14, 0)
s = 156: (0, 99, 10, 58, 10, 51, 14, 10, 16, 28, 15, 0)
s = 157: (0, 99, 15, 35, 11, 44, 17, 11, 16, 36, 17, 0)
s = 158: (0, 118, 9, 26, 11, 64, 10, 12, 20, 39, 15, 0)
s = 159: (0, 94, 14, 32, 13, 48, 17, 13, 24, 51, 10, 0)
s = 160: (0, 109, 17, 31, 9, 40, 22, 17, 18, 48, 15, 0)
s = 161: (0, 57, 8, 29, 11, 38, 13, 16, 35, 51, 15, 0)
s = 162: (0, 125, 16, 28, 11, 38, 13, 17, 30, 36, 13, 0)
s = 163: (0, 76, 9, 43, 17, 52, 15, 8, 33, 24, 9, 0)
s = 164: (0, 121, 10, 30, 12, 38, 30, 7, 36, 32, 17, 0)
s = 165: (0, 88, 13, 40, 14, 26, 23, 12, 16, 25, 18, 0)
s = 166: (0, 69, 12, 30, 12, 42, 17, 7, 24, 26, 9, 0)
s = 167: (0, 51, 16, 39, 13, 32, 20, 14, 22, 24, 12, 0)
s = 168: (0, 114, 7, 46, 14, 67, 14, 9, 32, 26, 12, 0)
s = 169: (0, 71, 17, 29, 16, 28, 11, 7, 30, 39, 17, 0)
s = 170: (0, 85, 8, 23, 11, 28, 11, 12, 23, 31, 14, 0)
s = 171: (0, 93, 9, 52, 15, 31, 23, 13, 26, 39, 10, 0)
s = 172: (0, 90, 15, 46, 11, 32, 14, 10, 23, 41, 10, 0)
s = 173: (0, 82, 16, 46, 12, 30, 18, 13, 15, 34, 10, 0)
s = 174: (0, 109, 10, 32, 8, 50, 20, 9, 31, 47, 11, 0)
s = 175: (0, 119, 8, 25, 8, 47, 19, 17, 31, 54, 14, 0)
s = 176: (0, 83, 17, 54, 14, 36, 21, 11, 46, 52, 11, 0)
s = 177: (0, 105, 15, 27, 9, 46, 13, 13, 17, 34, 20, 0)
s = 178: (0, 107, 9, 28, 10, 49, 15, 11, 18, 37, 16, 0)
s = 179: (0, 99, 11, 25, 13, 56, 20, 11, 18, 53, 12, 0)
s = 180: (0, 77, 10, 44, 15, 50, 14, 13, 22, 51, 8, 0)
s = 181: (0, 72, 10, 40, 10, 55, 21, 13, 27, 29, 11, 0)
s = 182: (0, 80, 10, 61, 10, 29, 22, 15, 33, 33, 15, 0)
s = 183: (0, 117, 9, 50, 14, 42, 15, 8, 26, 27, 11, 0)
s = 184: (0, 83, 16, 36, 12, 32, 13, 13, 19, 26, 9, 0)
s = 185: (0, 97, 16, 51, 13, 33, 14, 9, 23, 48, 19, 0)
s = 186: (0, 100, 9, 71, 10, 34, 16, 9, 28, 42, 19, 0)
s = 187: (0, 78, 18, 50, 7, 44, 19, 11, 23, 58, 10, 0)
s = 188: (0, 66, 9, 29, 8, 29, 21, 10, 28, 25, 14, 0)
s = 189: (0, 115, 7, 48, 15, 38, 22, 10, 16, 25, 16, 0)
s = 190: (0, 84, 9, 22, 10, 62, 12, 13, 23, 43, 13, 0)
s = 191: (0, 125, 16, 32, 16, 57, 11, 10, 22, 44, 17, 0)
s = 192: (0, 84, 11, 39, 11, 40, 13, 22, 29, 43, 15, 0)
s = 193: (0, 87, 10, 58, 7, 68, 21, 19, 24, 32, 11, 0)
s = 194: (0, 106, 15, 66, 10, 43, 16, 8, 23, 24, 13, 0)
s = 195: (0, 141, 14, 22, 10, 41, 26, 10, 36, 30, 11, 0)
s = 196: (0, 62, 13, 46, 9, 39, 16, 8, 22, 45, 11, 0)
s = 197: (0, 74, 10, 61, 10, 49, 25, 16, 20, 26, 19, 0)
s = 198: (0, 90, 17, 25, 11, 66, 13, 12, 16, 31, 14, 0)
s = 199: (0, 82, 11, 29, 11, 47, 10, 7, 27, 34, 10, 0)
s = 200: (0, 57, 14, 63, 21, 45, 15, 15, 19, 26, 11, 0)
------------------------------------------------------------------------
RESOURCE k = 2
s = 1: (0, 99, 13, 23, 14, 35, 25, 16, 20, 47, 8, 0)
s = 2: (0, 98, 8, 20, 12, 33, 11, 14, 25, 50, 12, 0)
s = 3: (0, 54, 6, 38, 15, 30, 14, 16, 17, 46, 11, 0)
s = 4: (0, 59, 15, 25, 18, 43, 11, 25, 19, 32, 13, 0)
s = 5: (0, 56, 12, 26, 13, 21, 17, 13, 27, 48, 12, 0)
s = 6: (0, 73, 14, 20, 12, 50, 13, 16, 31, 68, 9, 0)
s = 7: (0, 104, 8, 25, 17, 36, 12, 11, 35, 35, 8, 0)
s = 8: (0, 116, 13, 25, 23, 38, 11, 15, 16, 57, 10, 0)
s = 9: (0, 112, 8, 18, 12, 43, 21, 18, 23, 46, 11, 0)
s = 10: (0, 114, 10, 21, 17, 44, 10, 15, 27, 74, 9, 0)
s = 11: (0, 59, 10, 29, 10, 23, 16, 25, 20, 45, 8, 0)
s = 12: (0, 98, 11, 29, 24, 50, 14, 15, 31, 74, 10, 0)
s = 13: (0, 76, 9, 20, 21, 41, 11, 15, 17, 50, 7, 0)
s = 14: (0, 93, 14, 26, 13, 35, 12, 21, 24, 55, 10, 0)
s = 15: (0, 90, 17, 39, 15, 37, 11, 17, 37, 54, 12, 0)
s = 16: (0, 98, 10, 25, 25, 30, 21, 11, 34, 54, 7, 0)
s = 17: (0, 73, 6, 39, 11, 36, 9, 21, 24, 57, 15, 0)
s = 18: (0, 92, 9, 39, 22, 24, 14, 13, 24, 67, 7, 0)
s = 19: (0, 102, 11, 27, 25, 37, 20, 19, 21, 58, 12, 0)
s = 20: (0, 92, 11, 44, 16, 24, 14, 21, 29, 44, 10, 0)
s = 21: (0, 68, 15, 34, 13, 28, 11, 29, 35, 79, 13, 0)
s = 22: (0, 56, 11, 26, 10, 34, 11, 13, 30, 44, 11, 0)
s = 23: (0, 73, 11, 27, 16, 41, 16, 14, 29, 34, 9, 0)
s = 24: (0, 72, 9, 33, 18, 22, 16, 13, 40, 49, 11, 0)
s = 25: (0, 118, 10, 44, 21, 26, 12, 24, 26, 31, 14, 0)
s = 26: (0, 75, 14, 41, 12, 38, 19, 19, 19, 75, 13, 0)
s = 27: (0, 87, 13, 37, 18, 22, 15, 26, 18, 64, 12, 0)
s = 28: (0, 55, 7, 25, 22, 26, 14, 10, 29, 75, 10, 0)
s = 29: (0, 112, 18, 30, 16, 41, 15, 21, 16, 47, 12, 0)
s = 30: (0, 119, 10, 22, 19, 21, 16, 21, 16, 58, 12, 0)
s = 31: (0, 159, 9, 33, 9, 39, 15, 15, 29, 82, 12, 0)
s = 32: (0, 62, 6, 25, 16, 36, 21, 13, 16, 49, 11, 0)
s = 33: (0, 112, 7, 46, 18, 22, 14, 16, 16, 35, 11, 0)
s = 34: (0, 75, 12, 24, 14, 40, 17, 21, 26, 71, 10, 0)
s = 35: (0, 170, 11, 27, 26, 32, 11, 24, 19, 50, 12, 0)
s = 36: (0, 52, 10, 30, 12, 28, 14, 19, 42, 67, 13, 0)
s = 37: (0, 116, 13, 22, 24, 44, 18, 22, 24, 48, 9, 0)
s = 38: (0, 98, 15, 40, 19, 38, 19, 13, 21, 28, 10, 0)
s = 39: (0, 103, 7, 39, 10, 24, 18, 17, 19, 31, 7, 0)
s = 40: (0, 68, 9, 26, 19, 38, 13, 10, 32, 44, 10, 0)
s = 41: (0, 84, 12, 29, 19, 26, 18, 10, 23, 30, 8, 0)
s = 42: (0, 112, 9, 32, 16, 40, 10, 18, 33, 58, 10, 0)
s = 43: (0, 98, 14, 28, 22, 26, 9, 14, 32, 64, 11, 0)
s = 44: (0, 89, 14, 26, 16, 23, 16, 25, 22, 34, 12, 0)
s = 45: (0, 68, 9, 47, 19, 38, 20, 24, 30, 74, 9, 0)
s = 46: (0, 78, 11, 26, 19, 27, 19, 15, 29, 74, 11, 0)
s = 47: (0, 128, 9, 20, 16, 42, 12, 25, 18, 50, 8, 0)
s = 48: (0, 98, 7, 24, 15, 32, 10, 18, 26, 53, 11, 0)
s = 49: (0, 90, 10, 31, 15, 46, 18, 14, 33, 52, 9, 0)
s = 50: (0, 152, 12, 36, 16, 42, 27, 17, 33, 56, 13, 0)
s = 51: (0, 110, 6, 38, 12, 34, 15, 15, 43, 40, 9, 0)
s = 52: (0, 105, 8, 20, 16, 38, 11, 11, 28, 44, 13, 0)
s = 53: (0, 110, 8, 23, 13, 33, 18, 12, 29, 42, 15, 0)
s = 54: (0, 103, 6, 29, 23, 41, 19, 21, 40, 34, 7, 0)
s = 55: (0, 91, 10, 20, 18, 56, 23, 15, 20, 54, 8, 0)
s = 56: (0, 86, 11, 25, 16, 28, 18, 18, 39, 87, 11, 0)
s = 57: (0, 77, 9, 25, 12, 37, 11, 16, 24, 40, 10, 0)
s = 58: (0, 105, 12, 21, 19, 40, 26, 16, 37, 61, 19, 0)
s = 59: (0, 71, 6, 21, 21, 36, 18, 18, 20, 65, 11, 0)
s = 60: (0, 153, 14, 23, 12, 22, 18, 24, 29, 81, 14, 0)
s = 61: (0, 115, 8, 32, 13, 45, 14, 11, 41, 41, 8, 0)
s = 62: (0, 75, 11, 43, 19, 48, 11, 22, 28, 58, 9, 0)
s = 63: (0, 142, 14, 26, 19, 45, 14, 13, 34, 39, 12, 0)
s = 64: (0, 95, 15, 41, 11, 38, 16, 16, 27, 35, 10, 0)
s = 65: (0, 89, 8, 35, 20, 24, 10, 28, 20, 61, 10, 0)
s = 66: (0, 79, 9, 17, 29, 31, 13, 20, 29, 43, 14, 0)
s = 67: (0, 60, 7, 24, 14, 37, 12, 17, 23, 61, 10, 0)
s = 68: (0, 108, 7, 47, 14, 33, 8, 20, 29, 83, 11, 0)
s = 69: (0, 55, 9, 30, 20, 46, 19, 21, 32, 31, 9, 0)
s = 70: (0, 58, 10, 24, 21, 31, 12, 17, 25, 32, 16, 0)
s = 71: (0, 80, 12, 28, 24, 54, 24, 20, 21, 38, 14, 0)
s = 72: (0, 104, 10, 34, 12, 30, 9, 14, 33, 62, 10, 0)
s = 73: (0, 71, 8, 19, 20, 24, 19, 13, 32, 60, 9, 0)
s = 74: (0, 91, 10, 34, 19, 51, 13, 18, 31, 57, 13, 0)
s = 75: (0, 136, 11, 19, 12, 29, 16, 12, 19, 53, 9, 0)
s = 76: (0, 93, 11, 28, 16, 55, 23, 23, 30, 67, 9, 0)
s = 77: (0, 90, 9, 28, 10, 55, 13, 25, 37, 35, 8, 0)
s = 78: (0, 179, 7, 38, 21, 45, 11, 16, 41, 56, 8, 0)
s = 79: (0, 71, 9, 42, 10, 22, 14, 10, 21, 65, 15, 0)
s = 80: (0, 88, 11, 35, 12, 55, 12, 20, 21, 78, 16, 0)
s = 81: (0, 92, 7, 39, 17, 27, 14, 21, 19, 54, 8, 0)
s = 82: (0, 57, 13, 41, 15, 57, 12, 14, 26, 54, 16, 0)
s = 83: (0, 69, 10, 37, 18, 26, 8, 16, 19, 52, 15, 0)
s = 84: (0, 69, 13, 24, 19, 30, 8, 11, 28, 52, 9, 0)
s = 85: (0, 66, 7, 20, 16, 33, 12, 12, 26, 90, 17, 0)
s = 86: (0, 132, 8, 24, 14, 23, 16, 12, 23, 39, 16, 0)
s = 87: (0, 91, 9, 38, 15, 22, 20, 10, 29, 38, 10, 0)
s = 88: (0, 53, 11, 42, 16, 43, 20, 20, 23, 66, 10, 0)
s = 89: (0, 113, 8, 22, 14, 41, 24, 21, 30, 56, 10, 0)
s = 90: (0, 57, 15, 20, 16, 25, 14, 19, 21, 72, 14, 0)
s = 91: (0, 102, 10, 38, 15, 40, 19, 19, 34, 55, 10, 0)
s = 92: (0, 101, 12, 21, 11, 35, 10, 19, 22, 53, 12, 0)
s = 93: (0, 71, 14, 35, 13, 26, 19, 9, 24, 34, 7, 0)
s = 94: (0, 84, 9, 28, 19, 34, 24, 21, 28, 40, 7, 0)
s = 95: (0, 120, 11, 35, 12, 26, 10, 11, 19, 39, 10, 0)
s = 96: (0, 115, 8, 41, 20, 46, 10, 10, 35, 49, 8, 0)
s = 97: (0, 76, 9, 37, 18, 49, 16, 15, 19, 52, 9, 0)
s = 98: (0, 109, 10, 38, 12, 37, 11, 25, 18, 53, 11, 0)
s = 99: (0, 101, 16, 30, 13, 38, 16, 18, 30, 57, 11, 0)
s = 100: (0, 54, 9, 30, 22, 49, 16, 17, 40, 70, 11, 0)
s = 101: (0, 107, 10, 22, 24, 26, 11, 16, 16, 36, 13, 0)
s = 102: (0, 103, 15, 36, 18, 28, 21, 9, 24, 55, 12, 0)
s = 103: (0, 120, 13, 29, 11, 22, 9, 16, 23, 49, 7, 0)
s = 104: (0, 69, 7, 40, 14, 45, 11, 15, 40, 34, 11, 0)
s = 105: (0, 102, 15, 29, 16, 55, 18, 10, 19, 40, 15, 0)
s = 106: (0, 92, 8, 37, 12, 20, 15, 20, 22, 50, 6, 0)
s = 107: (0, 62, 9, 20, 15, 30, 9, 19, 23, 47, 12, 0)
s = 108: (0, 93, 9, 38, 16, 40, 11, 18, 34, 84, 13, 0)
s = 109: (0, 112, 13, 25, 23, 21, 11, 16, 18, 55, 15, 0)
s = 110: (0, 84, 9, 50, 12, 29, 11, 14, 16, 45, 12, 0)
s = 111: (0, 65, 15, 26, 12, 41, 24, 17, 18, 60, 12, 0)
s = 112: (0, 93, 16, 52, 23, 29, 12, 14, 33, 84, 10, 0)
s = 113: (0, 66, 8, 25, 18, 33, 19, 21, 24, 72, 13, 0)
s = 114: (0, 70, 11, 28, 16, 30, 20, 19, 37, 76, 7, 0)
s = 115: (0, 94, 12, 30, 17, 46, 8, 9, 41, 49, 12, 0)
s = 116: (0, 73, 13, 33, 17, 31, 15, 15, 17, 50, 9, 0)
s = 117: (0, 86, 15, 29, 14, 56, 14, 19, 18, 52, 11, 0)
s = 118: (0, 82, 13, 26, 26, 23, 14, 15, 29, 32, 10, 0)
s = 119: (0, 87, 10, 40, 13, 46, 18, 16, 26, 63, 9, 0)
s = 120: (0, 67, 10, 24, 15, 52, 8, 18, 29, 60, 11, 0)
s = 121: (0, 89, 14, 17, 24, 21, 11, 14, 27, 85, 12, 0)
s = 122: (0, 103, 11, 26, 16, 38, 15, 20, 22, 41, 13, 0)
s = 123: (0, 52, 13, 33, 9, 30, 15, 14, 27, 64, 14, 0)
s = 124: (0, 79, 11, 31, 15, 35, 16, 28, 28, 57, 7, 0)
s = 125: (0, 82, 11, 37, 26, 34, 8, 16, 30, 48, 6, 0)
s = 126: (0, 105, 11, 38, 23, 39, 10, 16, 21, 39, 11, 0)
s = 127: (0, 53, 11, 22, 17, 55, 10, 17, 24, 69, 19, 0)
s = 128: (0, 99, 7, 25, 15, 50, 16, 18, 19, 34, 9, 0)
s = 129: (0, 64, 9, 37, 15, 30, 17, 11, 14, 72, 9, 0)
s = 130: (0, 51, 14, 31, 11, 27, 8, 16, 47, 46, 16, 0)
s = 131: (0, 97, 15, 36, 12, 37, 16, 22, 23, 76, 6, 0)
s = 132: (0, 80, 10, 26, 23, 60, 14, 15, 27, 45, 16, 0)
s = 133: (0, 56, 10, 19, 20, 53, 14, 18, 22, 73, 14, 0)
s = 134: (0, 82, 8, 26, 22, 56, 11, 13, 19, 55, 8, 0)
s = 135: (0, 106, 12, 30, 25, 26, 10, 25, 25, 35, 9, 0)
s = 136: (0, 124, 10, 19, 21, 37, 17, 21, 18, 66, 13, 0)
s = 137: (0, 94, 11, 21, 17, 27, 11, 18, 36, 48, 14, 0)
s = 138: (0, 65, 10, 30, 17, 34, 20, 26, 27, 67, 10, 0)
s = 139: (0, 117, 8, 23, 24, 47, 31, 14, 41, 44, 10, 0)
s = 140: (0, 108, 8, 30, 23, 24, 10, 23, 29, 87, 10, 0)
s = 141: (0, 84, 13, 26, 14, 29, 14, 16, 24, 49, 9, 0)
s = 142: (0, 128, 9, 30, 13, 48, 16, 12, 29, 74, 10, 0)
s = 143: (0, 87, 13, 38, 14, 38, 9, 12, 21, 56, 9, 0)
s = 144: (0, 89, 14, 33, 13, 38, 17, 11, 27, 58, 11, 0)
s = 145: (0, 48, 14, 22, 16, 31, 18, 18, 30, 63, 13, 0)
s = 146: (0, 97, 7, 31, 16, 23, 21, 26, 15, 74, 12, 0)
s = 147: (0, 129, 7, 41, 21, 26, 24, 15, 22, 48, 13, 0)
s = 148: (0, 84, 8, 25, 12, 24, 9, 12, 24, 47, 9, 0)
s = 149: (0, 104, 17, 35, 16, 30, 15, 13, 22, 47, 13, 0)
s = 150: (0, 51, 14, 27, 17, 23, 20, 16, 25, 56, 10, 0)
s = 151: (0, 103, 10, 37, 18, 34, 16, 14, 28, 79, 10, 0)
s = 152: (0, 80, 6, 21, 19, 41, 15, 9, 17, 59, 11, 0)
s = 153: (0, 50, 7, 26, 11, 27, 18, 13, 32, 72, 11, 0)
s = 154: (0, 55, 9, 23, 22, 37, 12, 10, 28, 61, 8, 0)
s = 155: (0, 87, 8, 41, 13, 36, 11, 22, 17, 58, 11, 0)
s = 156: (0, 93, 8, 46, 13, 41, 12, 13, 17, 42, 12, 0)
s = 157: (0, 92, 12, 28, 14, 35, 14, 15, 18, 54, 13, 0)
s = 158: (0, 111, 7, 21, 15, 51, 9, 16, 22, 58, 11, 0)
s = 159: (0, 88, 11, 25, 17, 39, 14, 17, 26, 76, 8, 0)
s = 160: (0, 102, 14, 25, 12, 32, 19, 23, 20, 71, 12, 0)
s = 161: (0, 54, 7, 23, 14, 31, 10, 21, 38, 76, 12, 0)
s = 162: (0, 117, 13, 22, 14, 31, 11, 22, 33, 54, 10, 0)
s = 163: (0, 71, 8, 34, 23, 42, 13, 11, 36, 36, 7, 0)
s = 164: (0, 114, 8, 24, 16, 31, 25, 9, 39, 47, 13, 0)
s = 165: (0, 82, 11, 31, 19, 21, 19, 15, 17, 37, 14, 0)
s = 166: (0, 65, 10, 23, 16, 34, 14, 9, 26, 39, 7, 0)
s = 167: (0, 48, 14, 31, 17, 26, 16, 19, 23, 36, 9, 0)
s = 168: (0, 107, 6, 36, 19, 54, 12, 12, 35, 39, 10, 0)
s = 169: (0, 66, 14, 23, 22, 23, 9, 9, 33, 59, 13, 0)
s = 170: (0, 80, 7, 18, 15, 23, 9, 16, 25, 46, 11, 0)
s = 171: (0, 87, 7, 41, 19, 25, 19, 17, 28, 59, 8, 0)
s = 172: (0, 85, 12, 37, 14, 26, 12, 13, 25, 61, 8, 0)
s = 173: (0, 77, 13, 36, 16, 24, 15, 17, 16, 51, 8, 0)
s = 174: (0, 103, 8, 26, 11, 40, 16, 12, 34, 70, 9, 0)
s = 175: (0, 111, 7, 20, 11, 37, 16, 23, 33, 80, 11, 0)
s = 176: (0, 78, 14, 43, 18, 29, 18, 15, 50, 77, 9, 0)
s = 177: (0, 98, 12, 22, 12, 37, 11, 17, 18, 51, 15, 0)
s = 178: (0, 100, 8, 22, 13, 39, 13, 14, 20, 56, 13, 0)
s = 179: (0, 93, 9, 20, 18, 45, 16, 14, 19, 79, 9, 0)
s = 180: (0, 72, 9, 35, 20, 40, 11, 18, 24, 76, 6, 0)
s = 181: (0, 67, 9, 32, 13, 44, 18, 18, 29, 43, 8, 0)
s = 182: (0, 75, 9, 48, 14, 23, 19, 20, 36, 50, 11, 0)
s = 183: (0, 110, 8, 39, 18, 33, 12, 11, 29, 40, 9, 0)
s = 184: (0, 78, 13, 29, 16, 26, 11, 17, 21, 39, 7, 0)
s = 185: (0, 91, 13, 41, 17, 26, 12, 12, 25, 72, 14, 0)
s = 186: (0, 94, 8, 56, 13, 27, 13, 12, 30, 63, 14, 0)
s = 187: (0, 73, 15, 40, 10, 35, 16, 14, 24, 86, 8, 0)
s = 188: (0, 62, 7, 23, 10, 24, 18, 13, 30, 38, 11, 0)
s = 189: (0, 108, 6, 38, 19, 30, 18, 13, 18, 37, 13, 0)
s = 190: (0, 79, 7, 18, 13, 50, 10, 17, 24, 64, 10, 0)
s = 191: (0, 117, 13, 25, 21, 46, 9, 13, 24, 66, 13, 0)
s = 192: (0, 79, 9, 31, 14, 32, 10, 29, 31, 64, 11, 0)
s = 193: (0, 82, 9, 46, 9, 54, 17, 25, 26, 48, 9, 0)
s = 194: (0, 99, 13, 52, 13, 34, 14, 10, 25, 35, 10, 0)
s = 195: (0, 133, 12, 18, 14, 33, 22, 13, 39, 45, 8, 0)
s = 196: (0, 58, 11, 36, 11, 32, 14, 11, 24, 67, 9, 0)
s = 197: (0, 69, 9, 48, 14, 40, 20, 22, 22, 38, 15, 0)
s = 198: (0, 85, 14, 20, 15, 53, 10, 15, 18, 46, 11, 0)
s = 199: (0, 77, 9, 23, 14, 38, 8, 10, 29, 51, 8, 0)
s = 200: (0, 54, 11, 50, 28, 36, 12, 20, 20, 39, 9, 0)
************************************************************************
ES/LS-VALUES:
jobnr.   ES(i)    LS(i)
------------------------------------------------------------------------
  0        0        0
  1        0       57
  2        0       60
  3        0       63
  4        3       67
  5        1       62
  6        6       67
  7        1       68
  8        8       70
  9       11       69
 10        6       72
 11       16       74
************************************************************************
BIG-M-VALUES:
M1 = 47, M2 = 370
************************************************************************
